sat
(:binary-propagations  252
 :decisions            238
 :del-clause           49
 :final-checks         3
 :max-generation       1
 :max-memory           23.39
 :memory               20.95
 :mk-bool-var          451
 :mk-clause            94
 :mk-clause-binary     351
 :num-allocs           5388599
 :num-checks           1
 :propagations         272
 :quant-instantiations 50
 :restarts             2
 :rlimit-count         58810
 :time                 0.02)
